% ----DATA VARIABLES----

t=8;%number of attributes
k=6;%max length of the support set
n=20;%number of positive instances
m=20;%number of negative instances
c=3;%number of atMostOne Constraints

% ----OMEGAS----

omegap= [| 0, 0, 0, 1, 0, 0, 0, 0|
 0, 1, 0, 1, 1, 1, 1, 1|
 1, 0, 0, 1, 0, 0, 1, 1|
 0, 0, 0, 0, 0, 1, 1, 0|
 0, 0, 0, 0, 1, 0, 1, 1|
 1, 1, 0, 1, 1, 1, 1, 0|
 0, 0, 1, 0, 0, 0, 0, 0|
 0, 0, 1, 1, 1, 0, 1, 1|
 1, 0, 0, 0, 1, 0, 1, 1|
 0, 1, 1, 1, 0, 1, 1, 0|
 1, 1, 1, 0, 1, 0, 0, 1|
 0, 1, 0, 0, 1, 0, 1, 0|
 1, 0, 1, 1, 0, 0, 0, 0|
 0, 1, 1, 0, 0, 1, 1, 1|
 0, 0, 0, 1, 0, 0, 0, 1|
 1, 1, 0, 1, 1, 1, 1, 0|
 0, 1, 1, 1, 0, 0, 1, 0|
 0, 0, 1, 0, 0, 1, 0, 0|
 1, 0, 0, 1, 1, 0, 1, 1|
 1, 1, 0, 1, 0, 1, 1, 1|];

omegan= [| 1, 0, 1, 0, 0, 0, 0, 1|
 0, 1, 1, 0, 1, 1, 0, 0|
 0, 0, 1, 0, 1, 0, 1, 1|
 0, 1, 1, 0, 0, 0, 1, 1|
 1, 0, 1, 0, 1, 0, 1, 0|
 0, 0, 1, 0, 0, 0, 0, 1|
 1, 1, 0, 0, 0, 0, 1, 0|
 0, 0, 1, 1, 0, 1, 1, 0|
 0, 1, 0, 0, 0, 1, 1, 0|
 0, 0, 0, 0, 1, 0, 1, 0|
 1, 0, 0, 0, 0, 1, 1, 1|
 1, 0, 0, 0, 0, 0, 1, 1|
 1, 1, 0, 0, 1, 0, 0, 1|
 0, 1, 1, 0, 0, 1, 0, 0|
 1, 0, 0, 0, 0, 1, 1, 0|
 1, 0, 1, 0, 1, 0, 0, 0|
 0, 0, 0, 0, 1, 0, 1, 0|
 0, 0, 1, 1, 0, 1, 1, 0|
 0, 1, 0, 0, 1, 1, 1, 0|
 0, 1, 1, 1, 0, 1, 0, 0|];

% ----CONSTRAINS----

atMostOne=[{7}, {3, 4, 5}, {3, 7}];